# in_SiCN_Tscan_v4_large.lmp (v3 + RDF cutoff 10)
# ---------------------------------------------------------------------------
# a-SiCN T-scan: 300K → 1800K (100K steps) → 1800K → 300K (direct cool)
# ONE continuous in-situ run
# ---------------------------------------------------------------------------
#
# OUTPUT PER TEMPERATURE POINT:
#   rdf_T????.txt        partial g(r): Si-Si, Si-C, Si-N, C-C, C-N, N-N
#   CN_T????.txt         coordination numbers (10 quantities)
#   angles_T????.txt     ADF: N-Si-N, C-Si-C, C-Si-N, Si-C-Si, Si-N-Si, C-C-C
#   thermo_T????.txt     density, PE, T, P  (time-averaged)
#   dump_T????.lammpstrj atom trajectory during production (200 ps)
#
# DATA COLLECTION METHOD:
#   fix ave/time 100 10 1000 → time-averaged over 200 ps production
#   dump every 1000 steps    → 200 frames per temperature point
#
# MD ↔ EXPERIMENT SCALE (α = 1.50):
#   T_exp = 300 + (T_MD - 300) / 1.50
#   MD 1800K = Exp ~1300K  (covers experiment max 1200K + margin)
#
# HEATING : 300, 400, ..., 1800 K  (16 points)
# COOLING : 1800K → 300K direct → equilibrate → collect
#
# USAGE:
#   nohup mpirun -np 32 lmp -in in_SiCN_Tscan_unified_v3.lmp > log.tscan 2>&1 &
# ---------------------------------------------------------------------------

units           metal
atom_style      atomic
boundary        p p p

read_data       SiCN_300K_final.data

mass 1 28.09    # Si
mass 2 12.01    # C
mass 3 14.01    # N

group gSi type 1
group gC  type 2
group gN  type 3

variable NS equal count(gSi)
variable NC equal count(gC)
variable NN equal count(gN)

pair_style      tersoff
pair_coeff      * * SiCN.tersoff Si C N

comm_modify     cutoff 12.0
neighbor        2.0 bin
neigh_modify    every 1 delay 0 check yes
timestep        0.0005          # 0.5 fs

thermo_style    custom step temp press vol pe ke etotal density
thermo          2000

velocity        all create 300 54321 dist gaussian mom yes rot yes

# ===========================================================================
# COMPUTES — defined once, active throughout entire run
# ===========================================================================

# Partial RDF: Si-Si, Si-C, Si-N, C-C, C-N, N-N
compute allRDF all rdf 1000 1 1  1 2  1 3  2 2  2 3  3 3  cutoff 10.0

# CN — Si-centred
compute cSi_C  gSi coord/atom cutoff 2.25 2
compute cSi_N  gSi coord/atom cutoff 2.15 3
compute cSi_Si gSi coord/atom cutoff 2.70 1
compute sSi_C  gSi reduce sum c_cSi_C
compute sSi_N  gSi reduce sum c_cSi_N
compute sSi_Si gSi reduce sum c_cSi_Si
variable pSi_Si    equal c_sSi_Si/v_NS
variable pSi_C     equal c_sSi_C/v_NS
variable pSi_N     equal c_sSi_N/v_NS
variable CN_Si     equal (c_sSi_Si+c_sSi_C+c_sSi_N)/v_NS
variable CN_Si_SRO equal (c_sSi_C+c_sSi_N)/v_NS

# CN — C-centred
compute cC_C  gC coord/atom cutoff 1.85 2
compute cC_Si gC coord/atom cutoff 2.25 1
compute sC_C  gC reduce sum c_cC_C
compute sC_Si gC reduce sum c_cC_Si
variable pC_C  equal c_sC_C/v_NC
variable pC_Si equal c_sC_Si/v_NC
variable CN_C  equal (c_sC_C+c_sC_Si)/v_NC

# CN — N-centred
compute cN_Si gN coord/atom cutoff 2.15 1
compute sN_Si gN reduce sum c_cN_Si
variable pN_Si equal c_sN_Si/v_NN
variable CN_N  equal c_sN_Si/v_NN

# Thermo variables
variable vdensity equal density
variable vpe      equal pe
variable vtemp    equal temp
variable vpress   equal press

# ADF — 6 triplets
compute aNSiN  all adf 180 1 3 3 0.0 2.15 0.0 2.15   # N-Si-N
compute aCSiC  all adf 180 1 2 2 0.0 2.25 0.0 2.25   # C-Si-C
compute aCSiN  all adf 180 1 2 3 0.0 2.25 0.0 2.15   # C-Si-N
compute aSiCSi all adf 180 2 1 1 0.0 2.25 0.0 2.25   # Si-C-Si
compute aSiNSi all adf 180 3 1 1 0.0 2.15 0.0 2.15   # Si-N-Si
compute aCCC   all adf 180 2 2 2 0.0 1.85 0.0 1.85   # C-C-C

# ===========================================================================
# SECTION 1 — HEATING: 300K → 1800K  (16 points, 100K interval)
# ===========================================================================

# ════════════════════════════════════════════════════════════════════
# T0300  |  T_MD = 300 K  |  T_exp ≈ 300 K
# ════════════════════════════════════════════════════════════════════
fix  eq   all npt temp 300 300 0.1 iso 0.0 0.0 1.0
run  400000             # 200 ps equilibration
unfix eq

fix  prod all npt temp 300 300 0.1 iso 0.0 0.0 1.0
# ── Data collection: T0300 ─────────────────────────────────────────
dump   dmp_T0300 all atom 1000 dump_T0300.lammpstrj
dump_modify dmp_T0300 sort id
fix  fRDF all ave/time 100 10 1000 c_allRDF[*] &
     file rdf_T0300.txt mode vector
fix  fCN  all ave/time 100 10 1000 &
     v_CN_Si v_CN_Si_SRO v_CN_C v_CN_N &
     v_pSi_Si v_pSi_C v_pSi_N v_pC_C v_pC_Si v_pN_Si &
     file CN_T0300.txt
fix  fADF all ave/time 100 10 1000 &
     c_aNSiN[*] c_aCSiC[*] c_aCSiN[*] &
     c_aSiCSi[*] c_aSiNSi[*] c_aCCC[*] &
     file angles_T0300.txt mode vector
fix  fThm all ave/time 100 10 1000 &
     v_vtemp v_vpress v_vdensity v_vpe &
     file thermo_T0300.txt
run  400000             # 200 ps production
undump dmp_T0300
unfix fRDF
unfix fCN
unfix fADF
unfix fThm
print ">>> DONE: T0300  T_MD=300K  T_exp~300K"
print "    Files: rdf_T0300.txt  CN_T0300.txt  angles_T0300.txt  thermo_T0300.txt  dump_T0300.lammpstrj"

unfix prod

# ════════════════════════════════════════════════════════════════════
# T0400  |  T_MD = 400 K  |  T_exp ≈ 366 K
# ════════════════════════════════════════════════════════════════════
fix  ramp all npt temp 300 400 0.1 iso 0.0 0.0 1.0
run  40000              # 20 ps ramp
unfix ramp

fix  eq   all npt temp 400 400 0.1 iso 0.0 0.0 1.0
run  400000             # 200 ps equilibration
unfix eq

fix  prod all npt temp 400 400 0.1 iso 0.0 0.0 1.0
# ── Data collection: T0400 ─────────────────────────────────────────
dump   dmp_T0400 all atom 1000 dump_T0400.lammpstrj
dump_modify dmp_T0400 sort id
fix  fRDF all ave/time 100 10 1000 c_allRDF[*] &
     file rdf_T0400.txt mode vector
fix  fCN  all ave/time 100 10 1000 &
     v_CN_Si v_CN_Si_SRO v_CN_C v_CN_N &
     v_pSi_Si v_pSi_C v_pSi_N v_pC_C v_pC_Si v_pN_Si &
     file CN_T0400.txt
fix  fADF all ave/time 100 10 1000 &
     c_aNSiN[*] c_aCSiC[*] c_aCSiN[*] &
     c_aSiCSi[*] c_aSiNSi[*] c_aCCC[*] &
     file angles_T0400.txt mode vector
fix  fThm all ave/time 100 10 1000 &
     v_vtemp v_vpress v_vdensity v_vpe &
     file thermo_T0400.txt
run  400000             # 200 ps production
undump dmp_T0400
unfix fRDF
unfix fCN
unfix fADF
unfix fThm
print ">>> DONE: T0400  T_MD=400K  T_exp~366K"
print "    Files: rdf_T0400.txt  CN_T0400.txt  angles_T0400.txt  thermo_T0400.txt  dump_T0400.lammpstrj"

unfix prod

# ════════════════════════════════════════════════════════════════════
# T0500  |  T_MD = 500 K  |  T_exp ≈ 433 K
# ════════════════════════════════════════════════════════════════════
fix  ramp all npt temp 400 500 0.1 iso 0.0 0.0 1.0
run  40000              # 20 ps ramp
unfix ramp

fix  eq   all npt temp 500 500 0.1 iso 0.0 0.0 1.0
run  400000             # 200 ps equilibration
unfix eq

fix  prod all npt temp 500 500 0.1 iso 0.0 0.0 1.0
# ── Data collection: T0500 ─────────────────────────────────────────
dump   dmp_T0500 all atom 1000 dump_T0500.lammpstrj
dump_modify dmp_T0500 sort id
fix  fRDF all ave/time 100 10 1000 c_allRDF[*] &
     file rdf_T0500.txt mode vector
fix  fCN  all ave/time 100 10 1000 &
     v_CN_Si v_CN_Si_SRO v_CN_C v_CN_N &
     v_pSi_Si v_pSi_C v_pSi_N v_pC_C v_pC_Si v_pN_Si &
     file CN_T0500.txt
fix  fADF all ave/time 100 10 1000 &
     c_aNSiN[*] c_aCSiC[*] c_aCSiN[*] &
     c_aSiCSi[*] c_aSiNSi[*] c_aCCC[*] &
     file angles_T0500.txt mode vector
fix  fThm all ave/time 100 10 1000 &
     v_vtemp v_vpress v_vdensity v_vpe &
     file thermo_T0500.txt
run  400000             # 200 ps production
undump dmp_T0500
unfix fRDF
unfix fCN
unfix fADF
unfix fThm
print ">>> DONE: T0500  T_MD=500K  T_exp~433K"
print "    Files: rdf_T0500.txt  CN_T0500.txt  angles_T0500.txt  thermo_T0500.txt  dump_T0500.lammpstrj"

unfix prod

# ════════════════════════════════════════════════════════════════════
# T0600  |  T_MD = 600 K  |  T_exp ≈ 500 K
# ════════════════════════════════════════════════════════════════════
fix  ramp all npt temp 500 600 0.1 iso 0.0 0.0 1.0
run  40000              # 20 ps ramp
unfix ramp

fix  eq   all npt temp 600 600 0.1 iso 0.0 0.0 1.0
run  400000             # 200 ps equilibration
unfix eq

fix  prod all npt temp 600 600 0.1 iso 0.0 0.0 1.0
# ── Data collection: T0600 ─────────────────────────────────────────
dump   dmp_T0600 all atom 1000 dump_T0600.lammpstrj
dump_modify dmp_T0600 sort id
fix  fRDF all ave/time 100 10 1000 c_allRDF[*] &
     file rdf_T0600.txt mode vector
fix  fCN  all ave/time 100 10 1000 &
     v_CN_Si v_CN_Si_SRO v_CN_C v_CN_N &
     v_pSi_Si v_pSi_C v_pSi_N v_pC_C v_pC_Si v_pN_Si &
     file CN_T0600.txt
fix  fADF all ave/time 100 10 1000 &
     c_aNSiN[*] c_aCSiC[*] c_aCSiN[*] &
     c_aSiCSi[*] c_aSiNSi[*] c_aCCC[*] &
     file angles_T0600.txt mode vector
fix  fThm all ave/time 100 10 1000 &
     v_vtemp v_vpress v_vdensity v_vpe &
     file thermo_T0600.txt
run  400000             # 200 ps production
undump dmp_T0600
unfix fRDF
unfix fCN
unfix fADF
unfix fThm
print ">>> DONE: T0600  T_MD=600K  T_exp~500K"
print "    Files: rdf_T0600.txt  CN_T0600.txt  angles_T0600.txt  thermo_T0600.txt  dump_T0600.lammpstrj"

unfix prod

# ════════════════════════════════════════════════════════════════════
# T0700  |  T_MD = 700 K  |  T_exp ≈ 566 K
# ════════════════════════════════════════════════════════════════════
fix  ramp all npt temp 600 700 0.1 iso 0.0 0.0 1.0
run  40000              # 20 ps ramp
unfix ramp

fix  eq   all npt temp 700 700 0.1 iso 0.0 0.0 1.0
run  400000             # 200 ps equilibration
unfix eq

fix  prod all npt temp 700 700 0.1 iso 0.0 0.0 1.0
# ── Data collection: T0700 ─────────────────────────────────────────
dump   dmp_T0700 all atom 1000 dump_T0700.lammpstrj
dump_modify dmp_T0700 sort id
fix  fRDF all ave/time 100 10 1000 c_allRDF[*] &
     file rdf_T0700.txt mode vector
fix  fCN  all ave/time 100 10 1000 &
     v_CN_Si v_CN_Si_SRO v_CN_C v_CN_N &
     v_pSi_Si v_pSi_C v_pSi_N v_pC_C v_pC_Si v_pN_Si &
     file CN_T0700.txt
fix  fADF all ave/time 100 10 1000 &
     c_aNSiN[*] c_aCSiC[*] c_aCSiN[*] &
     c_aSiCSi[*] c_aSiNSi[*] c_aCCC[*] &
     file angles_T0700.txt mode vector
fix  fThm all ave/time 100 10 1000 &
     v_vtemp v_vpress v_vdensity v_vpe &
     file thermo_T0700.txt
run  400000             # 200 ps production
undump dmp_T0700
unfix fRDF
unfix fCN
unfix fADF
unfix fThm
print ">>> DONE: T0700  T_MD=700K  T_exp~566K"
print "    Files: rdf_T0700.txt  CN_T0700.txt  angles_T0700.txt  thermo_T0700.txt  dump_T0700.lammpstrj"

unfix prod

# ════════════════════════════════════════════════════════════════════
# T0800  |  T_MD = 800 K  |  T_exp ≈ 633 K
# ════════════════════════════════════════════════════════════════════
fix  ramp all npt temp 700 800 0.1 iso 0.0 0.0 1.0
run  40000              # 20 ps ramp
unfix ramp

fix  eq   all npt temp 800 800 0.1 iso 0.0 0.0 1.0
run  400000             # 200 ps equilibration
unfix eq

fix  prod all npt temp 800 800 0.1 iso 0.0 0.0 1.0
# ── Data collection: T0800 ─────────────────────────────────────────
dump   dmp_T0800 all atom 1000 dump_T0800.lammpstrj
dump_modify dmp_T0800 sort id
fix  fRDF all ave/time 100 10 1000 c_allRDF[*] &
     file rdf_T0800.txt mode vector
fix  fCN  all ave/time 100 10 1000 &
     v_CN_Si v_CN_Si_SRO v_CN_C v_CN_N &
     v_pSi_Si v_pSi_C v_pSi_N v_pC_C v_pC_Si v_pN_Si &
     file CN_T0800.txt
fix  fADF all ave/time 100 10 1000 &
     c_aNSiN[*] c_aCSiC[*] c_aCSiN[*] &
     c_aSiCSi[*] c_aSiNSi[*] c_aCCC[*] &
     file angles_T0800.txt mode vector
fix  fThm all ave/time 100 10 1000 &
     v_vtemp v_vpress v_vdensity v_vpe &
     file thermo_T0800.txt
run  400000             # 200 ps production
undump dmp_T0800
unfix fRDF
unfix fCN
unfix fADF
unfix fThm
print ">>> DONE: T0800  T_MD=800K  T_exp~633K"
print "    Files: rdf_T0800.txt  CN_T0800.txt  angles_T0800.txt  thermo_T0800.txt  dump_T0800.lammpstrj"

unfix prod

# ════════════════════════════════════════════════════════════════════
# T0900  |  T_MD = 900 K  |  T_exp ≈ 700 K
# ════════════════════════════════════════════════════════════════════
fix  ramp all npt temp 800 900 0.1 iso 0.0 0.0 1.0
run  40000              # 20 ps ramp
unfix ramp

fix  eq   all npt temp 900 900 0.1 iso 0.0 0.0 1.0
run  400000             # 200 ps equilibration
unfix eq

fix  prod all npt temp 900 900 0.1 iso 0.0 0.0 1.0
# ── Data collection: T0900 ─────────────────────────────────────────
dump   dmp_T0900 all atom 1000 dump_T0900.lammpstrj
dump_modify dmp_T0900 sort id
fix  fRDF all ave/time 100 10 1000 c_allRDF[*] &
     file rdf_T0900.txt mode vector
fix  fCN  all ave/time 100 10 1000 &
     v_CN_Si v_CN_Si_SRO v_CN_C v_CN_N &
     v_pSi_Si v_pSi_C v_pSi_N v_pC_C v_pC_Si v_pN_Si &
     file CN_T0900.txt
fix  fADF all ave/time 100 10 1000 &
     c_aNSiN[*] c_aCSiC[*] c_aCSiN[*] &
     c_aSiCSi[*] c_aSiNSi[*] c_aCCC[*] &
     file angles_T0900.txt mode vector
fix  fThm all ave/time 100 10 1000 &
     v_vtemp v_vpress v_vdensity v_vpe &
     file thermo_T0900.txt
run  400000             # 200 ps production
undump dmp_T0900
unfix fRDF
unfix fCN
unfix fADF
unfix fThm
print ">>> DONE: T0900  T_MD=900K  T_exp~700K"
print "    Files: rdf_T0900.txt  CN_T0900.txt  angles_T0900.txt  thermo_T0900.txt  dump_T0900.lammpstrj"

unfix prod

# ════════════════════════════════════════════════════════════════════
# T1000  |  T_MD = 1000 K  |  T_exp ≈ 766 K
# ════════════════════════════════════════════════════════════════════
fix  ramp all npt temp 900 1000 0.1 iso 0.0 0.0 1.0
run  40000              # 20 ps ramp
unfix ramp

fix  eq   all npt temp 1000 1000 0.1 iso 0.0 0.0 1.0
run  400000             # 200 ps equilibration
unfix eq

fix  prod all npt temp 1000 1000 0.1 iso 0.0 0.0 1.0
# ── Data collection: T1000 ─────────────────────────────────────────
dump   dmp_T1000 all atom 1000 dump_T1000.lammpstrj
dump_modify dmp_T1000 sort id
fix  fRDF all ave/time 100 10 1000 c_allRDF[*] &
     file rdf_T1000.txt mode vector
fix  fCN  all ave/time 100 10 1000 &
     v_CN_Si v_CN_Si_SRO v_CN_C v_CN_N &
     v_pSi_Si v_pSi_C v_pSi_N v_pC_C v_pC_Si v_pN_Si &
     file CN_T1000.txt
fix  fADF all ave/time 100 10 1000 &
     c_aNSiN[*] c_aCSiC[*] c_aCSiN[*] &
     c_aSiCSi[*] c_aSiNSi[*] c_aCCC[*] &
     file angles_T1000.txt mode vector
fix  fThm all ave/time 100 10 1000 &
     v_vtemp v_vpress v_vdensity v_vpe &
     file thermo_T1000.txt
run  400000             # 200 ps production
undump dmp_T1000
unfix fRDF
unfix fCN
unfix fADF
unfix fThm
print ">>> DONE: T1000  T_MD=1000K  T_exp~766K"
print "    Files: rdf_T1000.txt  CN_T1000.txt  angles_T1000.txt  thermo_T1000.txt  dump_T1000.lammpstrj"

unfix prod

# ════════════════════════════════════════════════════════════════════
# T1100  |  T_MD = 1100 K  |  T_exp ≈ 833 K
# ════════════════════════════════════════════════════════════════════
fix  ramp all npt temp 1000 1100 0.1 iso 0.0 0.0 1.0
run  40000              # 20 ps ramp
unfix ramp

fix  eq   all npt temp 1100 1100 0.1 iso 0.0 0.0 1.0
run  400000             # 200 ps equilibration
unfix eq

fix  prod all npt temp 1100 1100 0.1 iso 0.0 0.0 1.0
# ── Data collection: T1100 ─────────────────────────────────────────
dump   dmp_T1100 all atom 1000 dump_T1100.lammpstrj
dump_modify dmp_T1100 sort id
fix  fRDF all ave/time 100 10 1000 c_allRDF[*] &
     file rdf_T1100.txt mode vector
fix  fCN  all ave/time 100 10 1000 &
     v_CN_Si v_CN_Si_SRO v_CN_C v_CN_N &
     v_pSi_Si v_pSi_C v_pSi_N v_pC_C v_pC_Si v_pN_Si &
     file CN_T1100.txt
fix  fADF all ave/time 100 10 1000 &
     c_aNSiN[*] c_aCSiC[*] c_aCSiN[*] &
     c_aSiCSi[*] c_aSiNSi[*] c_aCCC[*] &
     file angles_T1100.txt mode vector
fix  fThm all ave/time 100 10 1000 &
     v_vtemp v_vpress v_vdensity v_vpe &
     file thermo_T1100.txt
run  400000             # 200 ps production
undump dmp_T1100
unfix fRDF
unfix fCN
unfix fADF
unfix fThm
print ">>> DONE: T1100  T_MD=1100K  T_exp~833K"
print "    Files: rdf_T1100.txt  CN_T1100.txt  angles_T1100.txt  thermo_T1100.txt  dump_T1100.lammpstrj"

unfix prod

# ════════════════════════════════════════════════════════════════════
# T1200  |  T_MD = 1200 K  |  T_exp ≈ 900 K
# ════════════════════════════════════════════════════════════════════
fix  ramp all npt temp 1100 1200 0.1 iso 0.0 0.0 1.0
run  40000              # 20 ps ramp
unfix ramp

fix  eq   all npt temp 1200 1200 0.1 iso 0.0 0.0 1.0
run  400000             # 200 ps equilibration
unfix eq

fix  prod all npt temp 1200 1200 0.1 iso 0.0 0.0 1.0
# ── Data collection: T1200 ─────────────────────────────────────────
dump   dmp_T1200 all atom 1000 dump_T1200.lammpstrj
dump_modify dmp_T1200 sort id
fix  fRDF all ave/time 100 10 1000 c_allRDF[*] &
     file rdf_T1200.txt mode vector
fix  fCN  all ave/time 100 10 1000 &
     v_CN_Si v_CN_Si_SRO v_CN_C v_CN_N &
     v_pSi_Si v_pSi_C v_pSi_N v_pC_C v_pC_Si v_pN_Si &
     file CN_T1200.txt
fix  fADF all ave/time 100 10 1000 &
     c_aNSiN[*] c_aCSiC[*] c_aCSiN[*] &
     c_aSiCSi[*] c_aSiNSi[*] c_aCCC[*] &
     file angles_T1200.txt mode vector
fix  fThm all ave/time 100 10 1000 &
     v_vtemp v_vpress v_vdensity v_vpe &
     file thermo_T1200.txt
run  400000             # 200 ps production
undump dmp_T1200
unfix fRDF
unfix fCN
unfix fADF
unfix fThm
print ">>> DONE: T1200  T_MD=1200K  T_exp~900K"
print "    Files: rdf_T1200.txt  CN_T1200.txt  angles_T1200.txt  thermo_T1200.txt  dump_T1200.lammpstrj"

unfix prod

# ════════════════════════════════════════════════════════════════════
# T1300  |  T_MD = 1300 K  |  T_exp ≈ 966 K
# ════════════════════════════════════════════════════════════════════
fix  ramp all npt temp 1200 1300 0.1 iso 0.0 0.0 1.0
run  40000              # 20 ps ramp
unfix ramp

fix  eq   all npt temp 1300 1300 0.1 iso 0.0 0.0 1.0
run  400000             # 200 ps equilibration
unfix eq

fix  prod all npt temp 1300 1300 0.1 iso 0.0 0.0 1.0
# ── Data collection: T1300 ─────────────────────────────────────────
dump   dmp_T1300 all atom 1000 dump_T1300.lammpstrj
dump_modify dmp_T1300 sort id
fix  fRDF all ave/time 100 10 1000 c_allRDF[*] &
     file rdf_T1300.txt mode vector
fix  fCN  all ave/time 100 10 1000 &
     v_CN_Si v_CN_Si_SRO v_CN_C v_CN_N &
     v_pSi_Si v_pSi_C v_pSi_N v_pC_C v_pC_Si v_pN_Si &
     file CN_T1300.txt
fix  fADF all ave/time 100 10 1000 &
     c_aNSiN[*] c_aCSiC[*] c_aCSiN[*] &
     c_aSiCSi[*] c_aSiNSi[*] c_aCCC[*] &
     file angles_T1300.txt mode vector
fix  fThm all ave/time 100 10 1000 &
     v_vtemp v_vpress v_vdensity v_vpe &
     file thermo_T1300.txt
run  400000             # 200 ps production
undump dmp_T1300
unfix fRDF
unfix fCN
unfix fADF
unfix fThm
print ">>> DONE: T1300  T_MD=1300K  T_exp~966K"
print "    Files: rdf_T1300.txt  CN_T1300.txt  angles_T1300.txt  thermo_T1300.txt  dump_T1300.lammpstrj"

unfix prod

# ════════════════════════════════════════════════════════════════════
# T1400  |  T_MD = 1400 K  |  T_exp ≈ 1033 K
# ════════════════════════════════════════════════════════════════════
fix  ramp all npt temp 1300 1400 0.1 iso 0.0 0.0 1.0
run  40000              # 20 ps ramp
unfix ramp

fix  eq   all npt temp 1400 1400 0.1 iso 0.0 0.0 1.0
run  400000             # 200 ps equilibration
unfix eq

fix  prod all npt temp 1400 1400 0.1 iso 0.0 0.0 1.0
# ── Data collection: T1400 ─────────────────────────────────────────
dump   dmp_T1400 all atom 1000 dump_T1400.lammpstrj
dump_modify dmp_T1400 sort id
fix  fRDF all ave/time 100 10 1000 c_allRDF[*] &
     file rdf_T1400.txt mode vector
fix  fCN  all ave/time 100 10 1000 &
     v_CN_Si v_CN_Si_SRO v_CN_C v_CN_N &
     v_pSi_Si v_pSi_C v_pSi_N v_pC_C v_pC_Si v_pN_Si &
     file CN_T1400.txt
fix  fADF all ave/time 100 10 1000 &
     c_aNSiN[*] c_aCSiC[*] c_aCSiN[*] &
     c_aSiCSi[*] c_aSiNSi[*] c_aCCC[*] &
     file angles_T1400.txt mode vector
fix  fThm all ave/time 100 10 1000 &
     v_vtemp v_vpress v_vdensity v_vpe &
     file thermo_T1400.txt
run  400000             # 200 ps production
undump dmp_T1400
unfix fRDF
unfix fCN
unfix fADF
unfix fThm
print ">>> DONE: T1400  T_MD=1400K  T_exp~1033K"
print "    Files: rdf_T1400.txt  CN_T1400.txt  angles_T1400.txt  thermo_T1400.txt  dump_T1400.lammpstrj"

unfix prod

# ════════════════════════════════════════════════════════════════════
# T1500  |  T_MD = 1500 K  |  T_exp ≈ 1100 K
# ════════════════════════════════════════════════════════════════════
fix  ramp all npt temp 1400 1500 0.1 iso 0.0 0.0 1.0
run  40000              # 20 ps ramp
unfix ramp

fix  eq   all npt temp 1500 1500 0.1 iso 0.0 0.0 1.0
run  400000             # 200 ps equilibration
unfix eq

fix  prod all npt temp 1500 1500 0.1 iso 0.0 0.0 1.0
# ── Data collection: T1500 ─────────────────────────────────────────
dump   dmp_T1500 all atom 1000 dump_T1500.lammpstrj
dump_modify dmp_T1500 sort id
fix  fRDF all ave/time 100 10 1000 c_allRDF[*] &
     file rdf_T1500.txt mode vector
fix  fCN  all ave/time 100 10 1000 &
     v_CN_Si v_CN_Si_SRO v_CN_C v_CN_N &
     v_pSi_Si v_pSi_C v_pSi_N v_pC_C v_pC_Si v_pN_Si &
     file CN_T1500.txt
fix  fADF all ave/time 100 10 1000 &
     c_aNSiN[*] c_aCSiC[*] c_aCSiN[*] &
     c_aSiCSi[*] c_aSiNSi[*] c_aCCC[*] &
     file angles_T1500.txt mode vector
fix  fThm all ave/time 100 10 1000 &
     v_vtemp v_vpress v_vdensity v_vpe &
     file thermo_T1500.txt
run  400000             # 200 ps production
undump dmp_T1500
unfix fRDF
unfix fCN
unfix fADF
unfix fThm
print ">>> DONE: T1500  T_MD=1500K  T_exp~1100K"
print "    Files: rdf_T1500.txt  CN_T1500.txt  angles_T1500.txt  thermo_T1500.txt  dump_T1500.lammpstrj"

unfix prod

# ════════════════════════════════════════════════════════════════════
# T1600  |  T_MD = 1600 K  |  T_exp ≈ 1166 K
# ════════════════════════════════════════════════════════════════════
fix  ramp all npt temp 1500 1600 0.1 iso 0.0 0.0 1.0
run  40000              # 20 ps ramp
unfix ramp

fix  eq   all npt temp 1600 1600 0.1 iso 0.0 0.0 1.0
run  400000             # 200 ps equilibration
unfix eq

fix  prod all npt temp 1600 1600 0.1 iso 0.0 0.0 1.0
# ── Data collection: T1600 ─────────────────────────────────────────
dump   dmp_T1600 all atom 1000 dump_T1600.lammpstrj
dump_modify dmp_T1600 sort id
fix  fRDF all ave/time 100 10 1000 c_allRDF[*] &
     file rdf_T1600.txt mode vector
fix  fCN  all ave/time 100 10 1000 &
     v_CN_Si v_CN_Si_SRO v_CN_C v_CN_N &
     v_pSi_Si v_pSi_C v_pSi_N v_pC_C v_pC_Si v_pN_Si &
     file CN_T1600.txt
fix  fADF all ave/time 100 10 1000 &
     c_aNSiN[*] c_aCSiC[*] c_aCSiN[*] &
     c_aSiCSi[*] c_aSiNSi[*] c_aCCC[*] &
     file angles_T1600.txt mode vector
fix  fThm all ave/time 100 10 1000 &
     v_vtemp v_vpress v_vdensity v_vpe &
     file thermo_T1600.txt
run  400000             # 200 ps production
undump dmp_T1600
unfix fRDF
unfix fCN
unfix fADF
unfix fThm
print ">>> DONE: T1600  T_MD=1600K  T_exp~1166K"
print "    Files: rdf_T1600.txt  CN_T1600.txt  angles_T1600.txt  thermo_T1600.txt  dump_T1600.lammpstrj"

unfix prod

# ════════════════════════════════════════════════════════════════════
# T1700  |  T_MD = 1700 K  |  T_exp ≈ 1233 K
# ════════════════════════════════════════════════════════════════════
fix  ramp all npt temp 1600 1700 0.1 iso 0.0 0.0 1.0
run  40000              # 20 ps ramp
unfix ramp

fix  eq   all npt temp 1700 1700 0.1 iso 0.0 0.0 1.0
run  400000             # 200 ps equilibration
unfix eq

fix  prod all npt temp 1700 1700 0.1 iso 0.0 0.0 1.0
# ── Data collection: T1700 ─────────────────────────────────────────
dump   dmp_T1700 all atom 1000 dump_T1700.lammpstrj
dump_modify dmp_T1700 sort id
fix  fRDF all ave/time 100 10 1000 c_allRDF[*] &
     file rdf_T1700.txt mode vector
fix  fCN  all ave/time 100 10 1000 &
     v_CN_Si v_CN_Si_SRO v_CN_C v_CN_N &
     v_pSi_Si v_pSi_C v_pSi_N v_pC_C v_pC_Si v_pN_Si &
     file CN_T1700.txt
fix  fADF all ave/time 100 10 1000 &
     c_aNSiN[*] c_aCSiC[*] c_aCSiN[*] &
     c_aSiCSi[*] c_aSiNSi[*] c_aCCC[*] &
     file angles_T1700.txt mode vector
fix  fThm all ave/time 100 10 1000 &
     v_vtemp v_vpress v_vdensity v_vpe &
     file thermo_T1700.txt
run  400000             # 200 ps production
undump dmp_T1700
unfix fRDF
unfix fCN
unfix fADF
unfix fThm
print ">>> DONE: T1700  T_MD=1700K  T_exp~1233K"
print "    Files: rdf_T1700.txt  CN_T1700.txt  angles_T1700.txt  thermo_T1700.txt  dump_T1700.lammpstrj"

unfix prod

# ════════════════════════════════════════════════════════════════════
# T1800  |  T_MD = 1800 K  |  T_exp ≈ 1300 K
# ════════════════════════════════════════════════════════════════════
fix  ramp all npt temp 1700 1800 0.1 iso 0.0 0.0 1.0
run  40000              # 20 ps ramp
unfix ramp

fix  eq   all npt temp 1800 1800 0.1 iso 0.0 0.0 1.0
run  400000             # 200 ps equilibration
unfix eq

fix  prod all npt temp 1800 1800 0.1 iso 0.0 0.0 1.0
# ── Data collection: T1800 ─────────────────────────────────────────
dump   dmp_T1800 all atom 1000 dump_T1800.lammpstrj
dump_modify dmp_T1800 sort id
fix  fRDF all ave/time 100 10 1000 c_allRDF[*] &
     file rdf_T1800.txt mode vector
fix  fCN  all ave/time 100 10 1000 &
     v_CN_Si v_CN_Si_SRO v_CN_C v_CN_N &
     v_pSi_Si v_pSi_C v_pSi_N v_pC_C v_pC_Si v_pN_Si &
     file CN_T1800.txt
fix  fADF all ave/time 100 10 1000 &
     c_aNSiN[*] c_aCSiC[*] c_aCSiN[*] &
     c_aSiCSi[*] c_aSiNSi[*] c_aCCC[*] &
     file angles_T1800.txt mode vector
fix  fThm all ave/time 100 10 1000 &
     v_vtemp v_vpress v_vdensity v_vpe &
     file thermo_T1800.txt
run  400000             # 200 ps production
undump dmp_T1800
unfix fRDF
unfix fCN
unfix fADF
unfix fThm
print ">>> DONE: T1800  T_MD=1800K  T_exp~1300K"
print "    Files: rdf_T1800.txt  CN_T1800.txt  angles_T1800.txt  thermo_T1800.txt  dump_T1800.lammpstrj"

unfix prod

# ===========================================================================
# SECTION 2 — COOLING: 1800K → 300K  (direct, no intermediate hold)
# Mirrors experiment: cool directly from T_max to 300K
# Ramp rate: 1500K / 75ps = 20 K/ps
# ===========================================================================

fix  cool all npt temp 1800 300 0.1 iso 0.0 0.0 1.0
run  150000             # 75 ps  (1800 → 300K at 20 K/ps)
unfix cool

# ── Equilibrate at 300K ──────────────────────────────────────────────────
fix  eq_cool all npt temp 300 300 0.1 iso 0.0 0.0 1.0
run  400000             # 200 ps equilibration
unfix eq_cool

# ── Collect after-cooling 300K structure ─────────────────────────────────
fix  prod_cool all npt temp 300 300 0.1 iso 0.0 0.0 1.0
# ── Data collection: cool_T0300 ─────────────────────────────────────────
dump   dmp_cool_T0300 all atom 1000 dump_cool_T0300.lammpstrj
dump_modify dmp_cool_T0300 sort id
fix  fRDF all ave/time 100 10 1000 c_allRDF[*] &
     file rdf_cool_T0300.txt mode vector
fix  fCN  all ave/time 100 10 1000 &
     v_CN_Si v_CN_Si_SRO v_CN_C v_CN_N &
     v_pSi_Si v_pSi_C v_pSi_N v_pC_C v_pC_Si v_pN_Si &
     file CN_cool_T0300.txt
fix  fADF all ave/time 100 10 1000 &
     c_aNSiN[*] c_aCSiC[*] c_aCSiN[*] &
     c_aSiCSi[*] c_aSiNSi[*] c_aCCC[*] &
     file angles_cool_T0300.txt mode vector
fix  fThm all ave/time 100 10 1000 &
     v_vtemp v_vpress v_vdensity v_vpe &
     file thermo_cool_T0300.txt
run  400000             # 200 ps production
undump dmp_cool_T0300
unfix fRDF
unfix fCN
unfix fADF
unfix fThm
print ">>> DONE: cool_T0300  T_MD=300K  T_exp~300K"
print "    Files: rdf_cool_T0300.txt  CN_cool_T0300.txt  angles_cool_T0300.txt  thermo_cool_T0300.txt  dump_cool_T0300.lammpstrj"

unfix prod_cool

# ===========================================================================
# FINAL
# ===========================================================================
min_style cg
minimize  1.0e-6 1.0e-8 10000 100000
write_data SiCN_Tscan_final.data

print "============================================================"
print "T-SCAN COMPLETE"
print "Heating : T0300 ~ T1800  (16 points)"
print "Cooling : cool_T0300     (1 point)"
print "Per point: rdf / CN / angles / thermo / dump"
print "Final structure: SiCN_Tscan_final.data"
print "============================================================"